certificates/rado_a13_c172_N34.cnf
c Rad2 upper bound instance: x1 + 13*x2 - x3 = 172, interval [1,34]
p cnf 34 178
1 11 14 0
-1 -11 -14 0
1 15 24 0
-1 -15 -24 0
2 12 14 0
-2 -12 -14 0
2 15 25 0
-2 -15 -25 0
3 13 14 0
-3 -13 -14 0
3 15 26 0
-3 -15 -26 0
1 4 13 0
-1 -4 -13 0
4 14 0
-4 -14 0
4 15 27 0
-4 -15 -27 0
2 5 13 0
-2 -5 -13 0
5 14 15 0
-5 -14 -15 0
5 15 28 0
-5 -15 -28 0
3 6 13 0
-3 -6 -13 0
6 14 16 0
-6 -14 -16 0
6 15 29 0
-6 -15 -29 0
4 7 13 0
-4 -7 -13 0
7 14 17 0
-7 -14 -17 0
7 15 30 0
-7 -15 -30 0
5 8 13 0
-5 -8 -13 0
8 14 18 0
-8 -14 -18 0
8 15 31 0
-8 -15 -31 0
6 9 13 0
-6 -9 -13 0
9 14 19 0
-9 -14 -19 0
9 15 32 0
-9 -15 -32 0
7 10 13 0
-7 -10 -13 0
10 14 20 0
-10 -14 -20 0
10 15 33 0
-10 -15 -33 0
8 11 13 0
-8 -11 -13 0
11 14 21 0
-11 -14 -21 0
11 15 34 0
-11 -15 -34 0
9 12 13 0
-9 -12 -13 0
12 14 22 0
-12 -14 -22 0
10 13 0
-10 -13 0
13 14 23 0
-13 -14 -23 0
11 13 14 0
-11 -13 -14 0
14 24 0
-14 -24 0
12 13 15 0
-12 -13 -15 0
14 15 25 0
-14 -15 -25 0
13 16 0
-13 -16 0
14 16 26 0
-14 -16 -26 0
1 12 17 0
-1 -12 -17 0
13 14 17 0
-13 -14 -17 0
14 17 27 0
-14 -17 -27 0
2 12 18 0
-2 -12 -18 0
13 15 18 0
-13 -15 -18 0
14 18 28 0
-14 -18 -28 0
3 12 19 0
-3 -12 -19 0
13 16 19 0
-13 -16 -19 0
14 19 29 0
-14 -19 -29 0
4 12 20 0
-4 -12 -20 0
13 17 20 0
-13 -17 -20 0
14 20 30 0
-14 -20 -30 0
5 12 21 0
-5 -12 -21 0
13 18 21 0
-13 -18 -21 0
14 21 31 0
-14 -21 -31 0
6 12 22 0
-6 -12 -22 0
13 19 22 0
-13 -19 -22 0
14 22 32 0
-14 -22 -32 0
7 12 23 0
-7 -12 -23 0
13 20 23 0
-13 -20 -23 0
14 23 33 0
-14 -23 -33 0
8 12 24 0
-8 -12 -24 0
13 21 24 0
-13 -21 -24 0
14 24 34 0
-14 -24 -34 0
9 12 25 0
-9 -12 -25 0
13 22 25 0
-13 -22 -25 0
10 12 26 0
-10 -12 -26 0
13 23 26 0
-13 -23 -26 0
11 12 27 0
-11 -12 -27 0
13 24 27 0
-13 -24 -27 0
12 28 0
-12 -28 0
13 25 28 0
-13 -25 -28 0
12 13 29 0
-12 -13 -29 0
13 26 29 0
-13 -26 -29 0
1 11 30 0
-1 -11 -30 0
12 14 30 0
-12 -14 -30 0
13 27 30 0
-13 -27 -30 0
2 11 31 0
-2 -11 -31 0
12 15 31 0
-12 -15 -31 0
13 28 31 0
-13 -28 -31 0
3 11 32 0
-3 -11 -32 0
12 16 32 0
-12 -16 -32 0
13 29 32 0
-13 -29 -32 0
4 11 33 0
-4 -11 -33 0
12 17 33 0
-12 -17 -33 0
13 30 33 0
-13 -30 -33 0
5 11 34 0
-5 -11 -34 0
12 18 34 0
-12 -18 -34 0
13 31 34 0
-13 -31 -34 0
