certificates/rado_a13_c172_N34.drat
13 -32 -33 0
15 31 -13 0
-32 -33 -34 0
-15 32 -33 0
15 31 0
d 12 15 31 0
15 -34 0
-33 -34 0
d -32 -33 -34 0
14 11 0
d 14 21 11 0
33 11 0
d 4 33 11 0
-15 -34 0
d -15 -11 -34 0
-34 0
11 0
-14 0
4 0
24 0
-33 0
23 0
-31 -15 0
d -12 -31 -15 0
31 0
-15 0
-2 0
10 0
25 0
5 0
12 0
-13 0
-21 0
-8 0
-9 0
-28 0
-20 0
-27 0
-7 0
-26 0
16 0
30 0
18 0
17 0
3 0
6 0
32 0
19 0
29 0
0
